\ This file has been generated by DOcplex
\ ENCODING=ISO-8859-1
\Problem name: random_problem.lp

Minimize
 obj: 1124 x0 + 562 x1 + 281 x2 - 572 x3 - 286 x4 - 143 x5 - 212 x6 - 106 x7
      - 53 x8 - 840 x9 - 420 x10 - 210 x11 + 344 x12 + 172 x13 + 86 x14
      - 176 x15 - 88 x16 - 44 x17 + 752 x18 + 376 x19 + 188 x20 - 1344 x21
      - 672 x22 - 336 x23 + [ 4864 x0^2 + 4864 x0*x1 + 2432 x0*x2 + 4864 x0*x3
      + 2432 x0*x4 + 1216 x0*x5 + 896 x0*x6 + 448 x0*x7 + 224 x0*x8 + 640 x0*x9
      + 320 x0*x10 + 160 x0*x11 + 3200 x0*x12 + 1600 x0*x13 + 800 x0*x14
      + 3328 x0*x15 + 1664 x0*x16 + 832 x0*x17 + 4864 x0*x18 + 2432 x0*x19
      + 1216 x0*x20 + 6144 x0*x21 + 3072 x0*x22 + 1536 x0*x23 + 1216 x1^2
      + 1216 x1*x2 + 2432 x1*x3 + 1216 x1*x4 + 608 x1*x5 + 448 x1*x6 + 224 x1*x7
      + 112 x1*x8 + 320 x1*x9 + 160 x1*x10 + 80 x1*x11 + 1600 x1*x12
      + 800 x1*x13 + 400 x1*x14 + 1664 x1*x15 + 832 x1*x16 + 416 x1*x17
      + 2432 x1*x18 + 1216 x1*x19 + 608 x1*x20 + 3072 x1*x21 + 1536 x1*x22
      + 768 x1*x23 + 304 x2^2 + 1216 x2*x3 + 608 x2*x4 + 304 x2*x5 + 224 x2*x6
      + 112 x2*x7 + 56 x2*x8 + 160 x2*x9 + 80 x2*x10 + 40 x2*x11 + 800 x2*x12
      + 400 x2*x13 + 200 x2*x14 + 832 x2*x15 + 416 x2*x16 + 208 x2*x17
      + 1216 x2*x18 + 608 x2*x19 + 304 x2*x20 + 1536 x2*x21 + 768 x2*x22
      + 384 x2*x23 + 5824 x3^2 + 5824 x3*x4 + 2912 x3*x5 + 2944 x3*x6
      + 1472 x3*x7 + 736 x3*x8 + 3968 x3*x9 + 1984 x3*x10 + 992 x3*x11
      + 6784 x3*x12 + 3392 x3*x13 + 1696 x3*x14 + 3328 x3*x15 + 1664 x3*x16
      + 832 x3*x17 + 8448 x3*x18 + 4224 x3*x19 + 2112 x3*x20 + 9088 x3*x21
      + 4544 x3*x22 + 2272 x3*x23 + 1456 x4^2 + 1456 x4*x5 + 1472 x4*x6
      + 736 x4*x7 + 368 x4*x8 + 1984 x4*x9 + 992 x4*x10 + 496 x4*x11
      + 3392 x4*x12 + 1696 x4*x13 + 848 x4*x14 + 1664 x4*x15 + 832 x4*x16
      + 416 x4*x17 + 4224 x4*x18 + 2112 x4*x19 + 1056 x4*x20 + 4544 x4*x21
      + 2272 x4*x22 + 1136 x4*x23 + 364 x5^2 + 736 x5*x6 + 368 x5*x7 + 184 x5*x8
      + 992 x5*x9 + 496 x5*x10 + 248 x5*x11 + 1696 x5*x12 + 848 x5*x13
      + 424 x5*x14 + 832 x5*x15 + 416 x5*x16 + 208 x5*x17 + 2112 x5*x18
      + 1056 x5*x19 + 528 x5*x20 + 2272 x5*x21 + 1136 x5*x22 + 568 x5*x23
      + 2752 x6^2 + 2752 x6*x7 + 1376 x6*x8 + 1664 x6*x9 + 832 x6*x10
      + 416 x6*x11 + 768 x6*x12 + 384 x6*x13 + 192 x6*x14 + 2688 x6*x15
      + 1344 x6*x16 + 672 x6*x17 + 384 x6*x18 + 192 x6*x19 + 96 x6*x20
      + 1664 x6*x21 + 832 x6*x22 + 416 x6*x23 + 688 x7^2 + 688 x7*x8 + 832 x7*x9
      + 416 x7*x10 + 208 x7*x11 + 384 x7*x12 + 192 x7*x13 + 96 x7*x14
      + 1344 x7*x15 + 672 x7*x16 + 336 x7*x17 + 192 x7*x18 + 96 x7*x19
      + 48 x7*x20 + 832 x7*x21 + 416 x7*x22 + 208 x7*x23 + 172 x8^2 + 416 x8*x9
      + 208 x8*x10 + 104 x8*x11 + 192 x8*x12 + 96 x8*x13 + 48 x8*x14
      + 672 x8*x15 + 336 x8*x16 + 168 x8*x17 + 96 x8*x18 + 48 x8*x19 + 24 x8*x20
      + 416 x8*x21 + 208 x8*x22 + 104 x8*x23 + 3008 x9^2 + 3008 x9*x10
      + 1504 x9*x11 + 384 x9*x12 + 192 x9*x13 + 96 x9*x14 + 1920 x9*x15
      + 960 x9*x16 + 480 x9*x17 + 2176 x9*x18 + 1088 x9*x19 + 544 x9*x20
      + 2176 x9*x21 + 1088 x9*x22 + 544 x9*x23 + 752 x10^2 + 752 x10*x11
      + 192 x10*x12 + 96 x10*x13 + 48 x10*x14 + 960 x10*x15 + 480 x10*x16
      + 240 x10*x17 + 1088 x10*x18 + 544 x10*x19 + 272 x10*x20 + 1088 x10*x21
      + 544 x10*x22 + 272 x10*x23 + 188 x11^2 + 96 x11*x12 + 48 x11*x13
      + 24 x11*x14 + 480 x11*x15 + 240 x11*x16 + 120 x11*x17 + 544 x11*x18
      + 272 x11*x19 + 136 x11*x20 + 544 x11*x21 + 272 x11*x22 + 136 x11*x23
      + 8576 x12^2 + 8576 x12*x13 + 4288 x12*x14 + 1280 x12*x15 + 640 x12*x16
      + 320 x12*x17 + 6528 x12*x18 + 3264 x12*x19 + 1632 x12*x20 + 5120 x12*x21
      + 2560 x12*x22 + 1280 x12*x23 + 2144 x13^2 + 2144 x13*x14 + 640 x13*x15
      + 320 x13*x16 + 160 x13*x17 + 3264 x13*x18 + 1632 x13*x19 + 816 x13*x20
      + 2560 x13*x21 + 1280 x13*x22 + 640 x13*x23 + 536 x14^2 + 320 x14*x15
      + 160 x14*x16 + 80 x14*x17 + 1632 x14*x18 + 816 x14*x19 + 408 x14*x20
      + 1280 x14*x21 + 640 x14*x22 + 320 x14*x23 + 3776 x15^2 + 3776 x15*x16
      + 1888 x15*x17 + 3584 x15*x18 + 1792 x15*x19 + 896 x15*x20 + 4608 x15*x21
      + 2304 x15*x22 + 1152 x15*x23 + 944 x16^2 + 944 x16*x17 + 1792 x16*x18
      + 896 x16*x19 + 448 x16*x20 + 2304 x16*x21 + 1152 x16*x22 + 576 x16*x23
      + 236 x17^2 + 896 x17*x18 + 448 x17*x19 + 224 x17*x20 + 1152 x17*x21
      + 576 x17*x22 + 288 x17*x23 + 6336 x18^2 + 6336 x18*x19 + 3168 x18*x20
      + 9216 x18*x21 + 4608 x18*x22 + 2304 x18*x23 + 1584 x19^2 + 1584 x19*x20
      + 4608 x19*x21 + 2304 x19*x22 + 1152 x19*x23 + 396 x20^2 + 2304 x20*x21
      + 1152 x20*x22 + 576 x20*x23 + 8384 x21^2 + 8384 x21*x22 + 4192 x21*x23
      + 2096 x22^2 + 2096 x22*x23 + 524 x23^2 ]/2
Subject To
 c0: 4 x0 + 2 x1 + x2 + 4 x3 + 2 x4 + x5 + 4 x6 + 2 x7 + x8 + 4 x9 + 2 x10 + x11
     + 4 x12 + 2 x13 + x14 + 4 x15 + 2 x16 + x17 + 4 x18 + 2 x19 + x20 + 4 x21
     + 2 x22 + x23 = 7

Bounds
 0 <= x0 <= 1
 0 <= x1 <= 1
 0 <= x2 <= 1
 0 <= x3 <= 1
 0 <= x4 <= 1
 0 <= x5 <= 1
 0 <= x6 <= 1
 0 <= x7 <= 1
 0 <= x8 <= 1
 0 <= x9 <= 1
 0 <= x10 <= 1
 0 <= x11 <= 1
 0 <= x12 <= 1
 0 <= x13 <= 1
 0 <= x14 <= 1
 0 <= x15 <= 1
 0 <= x16 <= 1
 0 <= x17 <= 1
 0 <= x18 <= 1
 0 <= x19 <= 1
 0 <= x20 <= 1
 0 <= x21 <= 1
 0 <= x22 <= 1
 0 <= x23 <= 1

Binaries
 x0 x1 x2 x3 x4 x5 x6 x7 x8 x9 x10 x11 x12 x13 x14 x15 x16 x17 x18 x19 x20 x21
 x22 x23
End
